20	5	2	0
0	1	20	15	19	20	8	9	6	1	4	2	5	3	7	17	16	10	14	18	13	11	12	[0 0 0 0 0]	[0 0 0 0 0]	[0 0 0 0 0]	[0 0 0 0 0]	[0 0 0 0 0]	[0 0 0 0 0]	[0 0 0 0 0]	[0 0 0 0 0]	[0 0 0 0 0]	[0 0 0 0 0]	[0 0 0 0 0]	[0 0 0 0 0]	[0 0 0 0 0]	[0 0 0 0 0]	[0 0 0 0 0]	[0 0 0 0 0]	[0 0 0 0 0]	[0 0 0 0 0]	[0 0 0 0 0]	[0 0 0 0 0]
1	5	2	12	21	[1 0 -1 -1 6 5 9 3 -2 4 -6 21 11 8 7 0 0 6 4 5 -1 0 10 12 -3]	[2 5 9 2 4]
2	5	2	18	21	[10 11 5 2 8 4 7 -3 9 8 -1 -3 -3 6 1 4 0 2 -1 -1 12 7 15 5 14]	[5 10 5 2 5]
3	5	2	21	13	[10 1 7 9 1]	[4 24 11 26 10 0 1 1 1 0 -3 -5 4 8 9 9 25 10 0 13 1 1 2 3 0]
4	5	2	15	21	[14 23 23 -1 0 18 12 -4 -3 21 19 0 -7 7 20 9 3 1 12 11 6 6 26 13 0]	[8 7 9 5 10]
5	5	2	21	14	[9 4 6 9 10]	[23 18 10 2 -3 4 0 11 -1 1 18 11 -4 0 3 27 9 7 15 18 -6 17 23 10 13]
6	5	3	13	19	21	[11 2 0 -3 3 0 1 0 0 2 1 0 3 1 7 1 7 9 3 0 15 -4 -3 19 6]	[10 8 5 5 9 0 3 3 3 0 0 8 4 9 1 3 2 8 6 7 -4 -5 3 10 10]	[4 1 3 3 9]
7	5	2	11	21	[7 15 13 -4 8 -1 17 14 -5 0 7 12 10 3 5 14 3 3 8 13 13 0 4 11 13]	[5 6 4 9 5]
8	5	3	20	17	21	[5 4 0 3 -2 11 15 -2 -1 1 0 1 -2 1 6 15 18 19 6 21 3 -3 11 9 1]	[0 1 0 -2 2 5 6 10 20 16 2 5 0 3 1 -2 1 -4 9 5 6 9 3 10 -3]	[3 7 3 7 4]
9	5	2	21	19	[9 10 5 9 6]	[24 0 0 8 27 -2 -4 29 -9 8 -2 15 15 2 1 1 10 -1 23 11 16 3 1 9 1]
10	5	4	14	21	12	13	[0 6 7 10 6 5 1 8 13 -2 4 -2 8 -3 1 12 0 11 13 14 15 7 24 2 -2]	[4 5 4 5 8]	[-11 0 -15 -3 -9 -15 -7 -1 -8 -1 -6 -13 -8 -7 -3 -7 -2 -13 -5 -5 -15 -12 -14 -11 -4]	[5 4 12 1 8 -4 -1 -1 -1 3 1 0 0 10 -1 11 0 11 4 -3 -5 2 21 19 13]
11	5	3	16	13	21	[-6 6 5 21 16 15 16 17 14 21 -2 10 -2 7 9 0 19 -5 0 20 -1 21 21 15 2]	[-16 -7 -19 -4 -6 -17 -18 -16 -4 -13 -26 -5 -19 -25 -15 -18 -25 -8 -14 -18 -4 -14 -15 -27 -23]	[10 8 4 7 7]
12	5	2	21	10	[6 7 1 6 1]	[-4 7 0 12 11 -2 11 18 11 -6 2 1 0 1 2 -4 15 17 -2 7 0 2 3 2 2]
13	5	3	17	21	11	[1 14 11 2 13 1 2 2 3 3 -2 5 13 0 -3 1 8 1 3 8 -1 21 -1 -8 20]	[5 1 8 3 9]	[15 12 8 13 0 0 3 2 3 0 14 9 0 -1 5 0 3 -1 7 7 2 -5 3 8 23]
14	5	3	5	21	20	[-19 -14 -6 -23 -9 -15 -15 -16 -10 -23 -3 -12 -6 -4 -17 -14 -10 -2 -8 -11 -8 -15 -19 -10 -18]	[8 7 10 9 7]	[0 24 14 14 6 10 15 -5 13 -4 19 -5 -4 3 -4 10 20 25 20 26 15 7 15 17 -2]
15	5	4	4	11	20	21	[-3 -19 -16 -2 -12 -10 -21 -22 -5 -5 -1 -5 -11 -13 -15 -7 -12 -19 -5 -18 -20 -17 -4 -3 -12]	[-1 -2 8 13 9 6 5 0 4 2 5 6 2 0 -1 1 2 -1 7 -2 4 11 1 1 8]	[0 9 14 8 0 0 6 3 0 0 1 4 4 0 5 9 5 0 3 14 -3 12 -3 12 8]	[5 2 2 5 4]
16	5	3	11	21	13	[-7 -13 -35 -29 -27 -15 -18 -25 -10 -24 -36 -28 -33 -23 -10 -31 -16 -29 -36 -11 -27 -33 -38 -11 -8]	[8 6 8 2 8]	[-26 -26 -4 -5 -31 -35 -14 -29 -25 -13 -27 -30 -34 -35 -35 -38 -23 -24 -19 -36 -16 -11 -10 -31 -9]
17	5	1	21	[7 4 2 2 6]
18	5	1	21	[5 6 8 5 6]
19	5	2	9	21	[-15 -11 -5 -10 -21 -4 -18 -14 -23 -21 -4 -11 -1 -5 -15 -11 -5 -6 -8 -19 -7 -22 -10 -14 -10]	[1 8 2 3 6]
20	5	2	8	21	[-12 -10 -5 -18 -16 -14 -18 -9 -6 -9 -10 -7 -7 -6 -10 -9 -17 -6 -15 -13 -7 -5 -16 -3 -10]	[8 10 8 6 3]
21	1	0
0	1	0	0	0	0	0	0	0	0
1	1	2	3	4	5	4	5	3	1
	2	5	3	4	5	4	5	3	1
	3	9	3	4	5	4	5	3	1
	4	2	3	4	5	4	5	3	1
	5	4	3	4	5	4	5	3	1
2	1	5	1	3	5	4	5	5	4
	2	10	1	3	5	4	5	5	4
	3	5	1	3	5	4	5	5	4
	4	2	1	3	5	4	5	5	4
	5	5	1	3	5	4	5	5	4
3	1	10	2	4	4	5	5	2	1
	2	1	2	4	4	5	5	2	1
	3	7	2	4	4	5	5	2	1
	4	9	2	4	4	5	5	2	1
	5	1	2	4	4	5	5	2	1
4	1	8	3	2	2	5	1	1	3
	2	7	3	2	2	5	1	1	3
	3	9	3	2	2	5	1	1	3
	4	5	3	2	2	5	1	1	3
	5	10	3	2	2	5	1	1	3
5	1	9	3	1	3	2	3	5	3
	2	4	3	1	3	2	3	5	3
	3	6	3	1	3	2	3	5	3
	4	9	3	1	3	2	3	5	3
	5	10	3	1	3	2	3	5	3
6	1	4	5	1	4	1	2	1	5
	2	1	5	1	4	1	2	1	5
	3	3	5	1	4	1	2	1	5
	4	3	5	1	4	1	2	1	5
	5	9	5	1	4	1	2	1	5
7	1	5	3	3	1	2	4	3	2
	2	6	3	3	1	2	4	3	2
	3	4	3	3	1	2	4	3	2
	4	9	3	3	1	2	4	3	2
	5	5	3	3	1	2	4	3	2
8	1	3	1	3	3	3	5	4	4
	2	7	1	3	3	3	5	4	4
	3	3	1	3	3	3	5	4	4
	4	7	1	3	3	3	5	4	4
	5	4	1	3	3	3	5	4	4
9	1	9	5	5	5	4	1	3	3
	2	10	5	5	5	4	1	3	3
	3	5	5	5	5	4	1	3	3
	4	9	5	5	5	4	1	3	3
	5	6	5	5	5	4	1	3	3
10	1	4	1	2	3	1	5	1	3
	2	5	1	2	3	1	5	1	3
	3	4	1	2	3	1	5	1	3
	4	5	1	2	3	1	5	1	3
	5	8	1	2	3	1	5	1	3
11	1	10	5	2	5	5	1	4	3
	2	8	5	2	5	5	1	4	3
	3	4	5	2	5	5	1	4	3
	4	7	5	2	5	5	1	4	3
	5	7	5	2	5	5	1	4	3
12	1	6	4	3	4	5	2	4	3
	2	7	4	3	4	5	2	4	3
	3	1	4	3	4	5	2	4	3
	4	6	4	3	4	5	2	4	3
	5	1	4	3	4	5	2	4	3
13	1	5	2	2	1	3	4	3	4
	2	1	2	2	1	3	4	3	4
	3	8	2	2	1	3	4	3	4
	4	3	2	2	1	3	4	3	4
	5	9	2	2	1	3	4	3	4
14	1	8	1	4	3	1	2	3	1
	2	7	1	4	3	1	2	3	1
	3	10	1	4	3	1	2	3	1
	4	9	1	4	3	1	2	3	1
	5	7	1	4	3	1	2	3	1
15	1	5	3	2	3	2	3	5	2
	2	2	3	2	3	2	3	5	2
	3	2	3	2	3	2	3	5	2
	4	5	3	2	3	2	3	5	2
	5	4	3	2	3	2	3	5	2
16	1	8	1	1	1	4	3	4	4
	2	6	1	1	1	4	3	4	4
	3	8	1	1	1	4	3	4	4
	4	2	1	1	1	4	3	4	4
	5	8	1	1	1	4	3	4	4
17	1	7	1	2	5	4	2	3	5
	2	4	1	2	5	4	2	3	5
	3	2	1	2	5	4	2	3	5
	4	2	1	2	5	4	2	3	5
	5	6	1	2	5	4	2	3	5
18	1	5	5	4	1	5	4	1	4
	2	6	5	4	1	5	4	1	4
	3	8	5	4	1	5	4	1	4
	4	5	5	4	1	5	4	1	4
	5	6	5	4	1	5	4	1	4
19	1	1	4	5	2	1	5	1	3
	2	8	4	5	2	1	5	1	3
	3	2	4	5	2	1	5	1	3
	4	3	4	5	2	1	5	1	3
	5	6	4	5	2	1	5	1	3
20	1	8	2	3	5	1	3	2	1
	2	10	2	3	5	1	3	2	1
	3	8	2	3	5	1	3	2	1
	4	6	2	3	5	1	3	2	1
	5	3	2	3	5	1	3	2	1
21	1	0	0	0	0	0	0	0	0
30	31	35	34	35	58	117
